Route #1: 30 48 29 45 27 52
Route #2: 4 34 46 8 35 7
Route #3: 58 10 38 11 53
Route #4: 14 59 19 54 13 57 15
Route #5: 5 37 20 60 36 47 21
Route #6: 63 23 56 41 43 42 64 61
Route #7: 2 28 62 22 1 33
Route #8: 3 44 32 50 9 39
Route #9: 31 25 55 18 24 49 16 6
Route #10: 51 17 40 12 26
Cost 824